networks/zoo_140_2898/zoo_140_2898.txt
Number of groups: 62
Flow 38: {39 42} {42 41} {41 111} 
Flow 53: {43 34} {34 46} {46 31} {31 60} {60 130} 
Flow 58: {64 65} {65 135} 
Flow 64: {3 4} {4 35} {35 2} {2 72} 
Flow 252: {2 1} {1 28} {28 10} {10 47} {47 117} 
Flow 341: {9 55} {55 23} {23 24} {24 94} 
Flow 430: {11 6} {6 76} 
Flow 500: {68 29} {29 66} {66 64} {64 134} 
Flow 509: {43 39} {39 7} {7 77} 
Flow 570: {15 14} {14 32} {32 45} {45 115} 
Flow 599: {16 27} {27 32} {32 50} {50 34} {34 104} 
Flow 627: {67 29} {29 68} {68 69} {69 139} 
Flow 652: {32 102} 
Flow 657: {7 2} {2 38} {38 108} 
Flow 701: {56 57} {57 58} {58 51} {51 55} {55 125} 
Flow 745: {19 48} {48 49} {49 9} {9 51} {51 121} 
Flow 777: {20 21} {21 22} {22 23} {23 93} 
Flow 806: {62 70} {70 61} {61 131} 
Flow 865: {23 55} {55 9} {9 79} 
Flow 869: {22 21} {21 20} {20 19} {19 89} 
Flow 878: {21 48} {48 118} 
Flow 930: {55 51} {51 58} {58 57} {57 127} 
Flow 964: {29 99} 
Flow 1092: {28 4} {4 3} {3 62} {62 132} 
Flow 1261: {5 6} {6 12} {12 54} {54 26} {26 96} 
Flow 1272: {50 46} {46 116} 
Flow 1305: {33 60} {60 31} {31 101} 
Flow 1307: {33 45} {45 46} {46 34} {34 43} 
Flow 1392: {35 4} {4 28} {28 98} 
Flow 1433: {26 25} {25 23} {23 22} {22 92} 
Flow 1460: {12 6} {6 58} {58 128} 
Flow 1497: {37 38} {38 2} {2 7} {7 39} {39 109} 
Flow 1646: {34 50} {50 32} {32 27} {27 97} 
Flow 1706: {42 39} {39 43} {43 113} 
Flow 1823: {13 67} {67 137} 
Flow 1852: {44 47} {47 30} {30 68} {68 138} 
Flow 1870: {48 21} {21 91} 
Flow 1886: {17 56} {56 40} {40 110} 
Flow 1912: {14 30} {30 47} {47 10} {10 3} {3 73} 
Flow 1936: {46 45} {45 33} 
Flow 1968: {8 5} {5 75} 
Flow 1971: {10 28} {28 1} {1 2} {2 8} {8 78} 
Flow 2041: {6 5} {5 8} {8 2} {2 35} {35 105} 
Flow 2067: {49 58} {58 6} {6 11} {11 81} 
Flow 2151: {69 61} {61 70} {70 140} 
Flow 2188: {51 9} {9 49} {49 119} 
Flow 2211: {53 36} {36 54} {54 12} {12 82} 
Flow 2323: {23 25} {25 26} {26 54} {54 36} {36 106} 
Flow 2327: {40 41} {41 42} {42 112} 
Flow 2339: {57 56} {56 17} {17 18} {18 59} {59 129} 
Flow 2420: {31 46} {46 50} {50 120} 
Flow 2446: {27 16} {16 13} {13 83} 
Flow 2448: {60 45} {45 32} {32 14} {14 15} {15 85} 
Flow 2519: {59 60} {60 33} {33 103} 
Flow 2620: {66 29} {29 67} {67 13} {13 16} {16 86} 
Flow 2621: {45 60} {60 59} {59 18} {18 17} {17 87} 
Flow 2646: {63 64} {64 66} {66 136} 
Flow 2688: {65 64} {64 63} {63 133} 
Flow 2708: {58 49} {49 48} {48 19} {19 20} {20 90} 
Flow 2876: {70 62} {62 3} {3 10} {10 80} 
Flow 2879: {61 69} {69 68} {68 30} {30 14} {14 84} 
Flow 2893: {41 40} {40 56} {56 126} 
Time taken running everything: 616 seconds
