networks/zoo_140_2898/zoo_140_2898.sol
<?xml version = "1.0" encoding="UTF-8" standalone="yes"?>
<CPLEXSolution version="1.2">
 <header
   problemName="networks/zoo_140_2898/zoo_140_2898.lp"
   solutionName="incumbent"
   solutionIndex="-1"
   objectiveValue="62"
   solutionTypeValue="3"
   solutionTypeString="primal"
   solutionStatusValue="107"
   solutionStatusString="time limit exceeded"
   solutionMethodString="mip"
   primalFeasible="1"
   dualFeasible="0"
   MIPNodes="1394"
   MIPIterations="533562"
   writeLevel="3"/>
 <quality
   epInt="1.0000000000000001e-05"
   epRHS="9.9999999999999995e-07"
   maxIntInfeas="1.000000082740371e-09"
   maxPrimalInfeas="6.000000496442226e-09"
   maxX="4.0000000030000002"
   maxSlack="10.000000003"/>
 <variables>
  <variable name="Y(8,7)" index="909" value="4.9999004156935396e-11"/>
  <variable name="Y(38,41)" index="4813" value="1"/>
  <variable name="Y(53,60)" index="6766" value="1"/>
  <variable name="Y(58,65)" index="7416" value="1"/>
  <variable name="Y(64,2)" index="8128" value="1"/>
  <variable name="Y(252,47)" index="32425" value="1.0000000007500001"/>
  <variable name="Y(341,24)" index="43883" value="1"/>
  <variable name="Y(430,6)" index="55346" value="1"/>
  <variable name="Y(500,64)" index="64433" value="1"/>
  <variable name="Y(509,7)" index="65538" value="1"/>
  <variable name="Y(570,45)" index="73445" value="1"/>
  <variable name="Y(599,34)" index="77175" value="1"/>
  <variable name="Y(627,69)" index="80821" value="1"/>
  <variable name="Y(652,32)" index="84010" value="1"/>
  <variable name="Y(657,38)" index="84661" value="1"/>
  <variable name="Y(701,55)" index="90353" value="1"/>
  <variable name="Y(745,51)" index="96026" value="1"/>
  <variable name="Y(777,23)" index="100126" value="1"/>
  <variable name="Y(806,61)" index="103904" value="1"/>
  <variable name="Y(865,9)" index="111464" value="1"/>
  <variable name="Y(869,19)" index="111990" value="1"/>
  <variable name="Y(878,48)" index="113180" value="1"/>
  <variable name="Y(930,57)" index="119896" value="1"/>
  <variable name="Y(964,29)" index="124255" value="1"/>
  <variable name="Y(978,47)" index="126079" value="-7.5000006205527815e-10"/>
  <variable name="Y(1092,62)" index="140799" value="1"/>
  <variable name="Y(1193,7)" index="153774" value="-4.9999004156935396e-11"/>
  <variable name="Y(1261,26)" index="162565" value="1"/>
  <variable name="Y(1272,46)" index="164004" value="1"/>
  <variable name="Y(1305,31)" index="168246" value="1"/>
  <variable name="Y(1307,34)" index="168507" value="1"/>
  <variable name="Y(1392,28)" index="179466" value="1"/>
  <variable name="Y(1433,22)" index="184749" value="1"/>
  <variable name="Y(1460,58)" index="188267" value="1"/>
  <variable name="Y(1497,39)" index="193022" value="1"/>
  <variable name="Y(1646,27)" index="212231" value="1"/>
  <variable name="Y(1706,43)" index="219987" value="1"/>
  <variable name="Y(1823,67)" index="235103" value="1"/>
  <variable name="Y(1852,68)" index="238845" value="1"/>
  <variable name="Y(1870,21)" index="241121" value="1"/>
  <variable name="Y(1886,40)" index="243204" value="1"/>
  <variable name="Y(1912,3)" index="246521" value="1"/>
  <variable name="Y(1936,45)" index="249659" value="1"/>
  <variable name="Y(1968,5)" index="253747" value="1"/>
  <variable name="Y(1971,8)" index="254137" value="1"/>
  <variable name="Y(2027,10)" index="261363" value="-5.5555097204673157e-11"/>
  <variable name="Y(2041,35)" index="263194" value="1"/>
  <variable name="Y(2067,11)" index="266524" value="1"/>
  <variable name="Y(2151,70)" index="277418" value="1"/>
  <variable name="Y(2188,49)" index="282171" value="1"/>
  <variable name="Y(2211,12)" index="285101" value="1"/>
  <variable name="Y(2323,36)" index="299573" value="1"/>
  <variable name="Y(2327,42)" index="300095" value="1"/>
  <variable name="Y(2339,59)" index="301659" value="1"/>
  <variable name="Y(2389,10)" index="308061" value="5.5555097204673157e-11"/>
  <variable name="Y(2420,50)" index="312100" value="1"/>
  <variable name="Y(2446,13)" index="315417" value="1"/>
  <variable name="Y(2448,15)" index="315677" value="1"/>
  <variable name="Y(2519,33)" index="324854" value="1"/>
  <variable name="Y(2620,16)" index="337866" value="1"/>
  <variable name="Y(2621,17)" index="337996" value="1"/>
  <variable name="Y(2646,66)" index="341269" value="1"/>
  <variable name="Y(2688,63)" index="346684" value="1"/>
  <variable name="Y(2708,20)" index="349222" value="1"/>
  <variable name="Y(2876,10)" index="370884" value="1"/>
  <variable name="Y(2879,14)" index="371275" value="1"/>
  <variable name="Y(2893,56)" index="373122" value="1"/>
  <variable name="X(1,2,1971)" index="375812" value="1"/>
  <variable name="X(1,28,252)" index="376991" value="1"/>
  <variable name="X(1,28,978)" index="377717" value="-1.250000103425464e-10"/>
  <variable name="X(1,28,2027)" index="378766" value="-4.1665281271473084e-11"/>
  <variable name="X(1,28,2389)" index="379128" value="1.6666529161401948e-10"/>
  <variable name="X(2,1,252)" index="379889" value="1.0000000010000001"/>
  <variable name="X(2,1,978)" index="380615" value="-1.250000103425464e-10"/>
  <variable name="X(2,1,2027)" index="381664" value="-8.7500007239782462e-10"/>
  <variable name="X(2,7,1497)" index="384032" value="1"/>
  <variable name="X(2,8,1971)" index="387404" value="1"/>
  <variable name="X(2,35,2041)" index="390372" value="1"/>
  <variable name="X(2,38,657)" index="391886" value="1"/>
  <variable name="X(2,72,64)" index="394191" value="1"/>
  <variable name="X(3,4,64)" index="397089" value="1"/>
  <variable name="X(3,10,2876)" index="402799" value="1"/>
  <variable name="X(3,62,1092)" index="403913" value="1"/>
  <variable name="X(3,73,1912)" index="407631" value="1"/>
  <variable name="X(4,3,1092)" index="409709" value="1"/>
  <variable name="X(4,28,1392)" index="412907" value="1"/>
  <variable name="X(4,35,64)" index="414477" value="1"/>
  <variable name="X(5,6,1261)" index="418572" value="1"/>
  <variable name="X(5,8,2041)" index="422250" value="1"/>
  <variable name="X(5,75,1968)" index="425075" value="1"/>
  <variable name="X(6,5,2041)" index="428046" value="1"/>
  <variable name="X(6,11,2067)" index="430970" value="1"/>
  <variable name="X(6,12,1261)" index="433062" value="1"/>
  <variable name="X(6,58,1460)" index="436159" value="1"/>
  <variable name="X(6,76,430)" index="438027" value="1"/>
  <variable name="X(7,2,657)" index="441152" value="1.0000000010000001"/>
  <variable name="X(7,2,1216)" index="441711" value="-1.000000082740371e-09"/>
  <variable name="X(7,39,1497)" index="444890" value="1"/>
  <variable name="X(7,77,8)" index="446299" value="4.9999004156935396e-11"/>
  <variable name="X(7,77,509)" index="446800" value="1"/>
  <variable name="X(7,77,1193)" index="447484" value="-4.9999004156935396e-11"/>
  <variable name="X(8,2,446)" index="449635" value="-7.5000006205527825e-10"/>
  <variable name="X(8,2,2027)" index="451216" value="7.5000006205527825e-10"/>
  <variable name="X(8,2,2041)" index="451230" value="1"/>
  <variable name="X(8,5,1968)" index="454055" value="1"/>
  <variable name="X(8,78,1971)" index="456956" value="1"/>
  <variable name="X(9,49,2188)" index="460071" value="1"/>
  <variable name="X(9,51,745)" index="461526" value="1"/>
  <variable name="X(9,55,341)" index="464020" value="1"/>
  <variable name="X(9,79,865)" index="467442" value="1"/>
  <variable name="X(10,3,1912)" index="471387" value="1"/>
  <variable name="X(10,28,1971)" index="474344" value="1"/>
  <variable name="X(10,47,252)" index="475523" value="1"/>
  <variable name="X(10,80,2027)" index="480196" value="-5.5555097204673157e-11"/>
  <variable name="X(10,80,2389)" index="480558" value="5.5555097204673157e-11"/>
  <variable name="X(10,80,2876)" index="481045" value="1"/>
  <variable name="X(11,6,430)" index="481497" value="1"/>
  <variable name="X(11,81,2067)" index="486032" value="1"/>
  <variable name="X(12,6,1460)" index="488323" value="1"/>
  <variable name="X(12,54,1261)" index="491022" value="1"/>
  <variable name="X(12,82,2211)" index="494870" value="1"/>
  <variable name="X(13,16,2620)" index="498177" value="1"/>
  <variable name="X(13,67,1823)" index="500278" value="1"/>
  <variable name="X(13,83,2446)" index="503799" value="1"/>
  <variable name="X(14,15,2448)" index="506699" value="1"/>
  <variable name="X(14,30,1912)" index="509061" value="1"/>
  <variable name="X(14,32,570)" index="510617" value="1"/>
  <variable name="X(14,84,2879)" index="515824" value="1"/>
  <variable name="X(15,14,570)" index="516413" value="1"/>
  <variable name="X(15,85,2448)" index="521189" value="1"/>
  <variable name="X(16,13,2446)" index="524085" value="1"/>
  <variable name="X(16,27,599)" index="525136" value="1"/>
  <variable name="X(16,86,2620)" index="530055" value="1"/>
  <variable name="X(17,18,2339)" index="532672" value="1"/>
  <variable name="X(17,56,1886)" index="535117" value="1"/>
  <variable name="X(17,87,2621)" index="538750" value="1"/>
  <variable name="X(18,17,2621)" index="541648" value="1"/>
  <variable name="X(18,59,2339)" index="544264" value="1"/>
  <variable name="X(19,20,2708)" index="547531" value="1"/>
  <variable name="X(19,48,745)" index="548466" value="1"/>
  <variable name="X(19,89,869)" index="551488" value="1"/>
  <variable name="X(20,19,869)" index="554386" value="1"/>
  <variable name="X(20,21,777)" index="557192" value="1"/>
  <variable name="X(20,90,2708)" index="562021" value="1"/>
  <variable name="X(21,20,869)" index="563080" value="1"/>
  <variable name="X(21,22,777)" index="565886" value="1"/>
  <variable name="X(21,48,878)" index="568885" value="1"/>
  <variable name="X(21,91,1870)" index="572775" value="1"/>
  <variable name="X(22,21,869)" index="574672" value="1"/>
  <variable name="X(22,23,777)" index="577478" value="1"/>
  <variable name="X(22,92,1433)" index="581032" value="1"/>
  <variable name="X(23,22,1433)" index="583930" value="1"/>
  <variable name="X(23,24,341)" index="585736" value="1"/>
  <variable name="X(23,25,2323)" index="590616" value="1"/>
  <variable name="X(23,55,865)" index="592056" value="1"/>
  <variable name="X(23,93,777)" index="594866" value="1"/>
  <variable name="X(24,94,341)" index="597328" value="1"/>
  <variable name="X(25,23,1433)" index="601318" value="1"/>
  <variable name="X(25,26,2323)" index="605106" value="1"/>
  <variable name="X(26,25,1433)" index="607114" value="1"/>
  <variable name="X(26,54,2323)" index="610902" value="1"/>
  <variable name="X(26,96,1261)" index="612738" value="1"/>
  <variable name="X(27,16,2446)" index="616821" value="1"/>
  <variable name="X(27,32,599)" index="617872" value="1"/>
  <variable name="X(27,97,1646)" index="621817" value="1"/>
  <variable name="X(28,1,1971)" index="625040" value="1"/>
  <variable name="X(28,4,1092)" index="627059" value="1"/>
  <variable name="X(28,10,252)" index="629117" value="1"/>
  <variable name="X(28,10,978)" index="629843" value="2.500000206850928e-10"/>
  <variable name="X(28,10,1094)" index="629959" value="-2.500000206850928e-10"/>
  <variable name="X(28,10,2027)" index="630892" value="-5.5555097204673157e-11"/>
  <variable name="X(28,10,2389)" index="631254" value="5.5555097204673157e-11"/>
  <variable name="X(28,98,1392)" index="633155" value="1"/>
  <variable name="X(29,66,500)" index="635161" value="1"/>
  <variable name="X(29,67,2620)" index="640179" value="1"/>
  <variable name="X(29,68,627)" index="641084" value="1"/>
  <variable name="X(29,99,964)" index="644319" value="1"/>
  <variable name="X(30,14,2879)" index="649132" value="1"/>
  <variable name="X(30,47,1912)" index="651063" value="1"/>
  <variable name="X(30,68,1852)" index="653901" value="1"/>
  <variable name="X(31,46,2420)" index="657367" value="1"/>
  <variable name="X(31,60,53)" index="657898" value="1"/>
  <variable name="X(31,101,1305)" index="662048" value="1"/>
  <variable name="X(32,14,2448)" index="666089" value="1"/>
  <variable name="X(32,27,1646)" index="668185" value="1"/>
  <variable name="X(32,45,570)" index="670007" value="1"/>
  <variable name="X(32,50,599)" index="672934" value="1"/>
  <variable name="X(32,102,652)" index="675885" value="1"/>
  <variable name="X(33,45,1307)" index="679438" value="1"/>
  <variable name="X(33,60,1305)" index="682334" value="1"/>
  <variable name="X(33,103,2519)" index="686446" value="1"/>
  <variable name="X(34,43,1307)" index="688132" value="1"/>
  <variable name="X(34,46,53)" index="689776" value="1"/>
  <variable name="X(34,50,1646)" index="694267" value="1"/>
  <variable name="X(34,104,599)" index="696118" value="1"/>
  <variable name="X(35,2,64)" index="698481" value="1"/>
  <variable name="X(35,4,1392)" index="702707" value="1"/>
  <variable name="X(35,105,2041)" index="706254" value="1"/>
  <variable name="X(36,54,2211)" index="709322" value="1"/>
  <variable name="X(36,106,2323)" index="712332" value="1"/>
  <variable name="X(37,38,1497)" index="714404" value="1"/>
  <variable name="X(38,2,1497)" index="717302" value="1"/>
  <variable name="X(38,108,657)" index="719360" value="1"/>
  <variable name="X(39,7,509)" index="722110" value="1"/>
  <variable name="X(39,7,1193)" index="722794" value="-1.9999601662774158e-10"/>
  <variable name="X(39,7,1216)" index="722817" value="1.9999601662774158e-10"/>
  <variable name="X(39,42,38)" index="724537" value="1"/>
  <variable name="X(39,43,1706)" index="729103" value="1"/>
  <variable name="X(39,109,1497)" index="731792" value="1"/>
  <variable name="X(40,41,2327)" index="735520" value="1"/>
  <variable name="X(40,56,2893)" index="738984" value="1"/>
  <variable name="X(40,110,1886)" index="740875" value="1"/>
  <variable name="X(41,40,2893)" index="744780" value="1"/>
  <variable name="X(41,42,2327)" index="747112" value="1"/>
  <variable name="X(41,111,38)" index="747721" value="1"/>
  <variable name="X(42,39,1706)" index="752287" value="1"/>
  <variable name="X(42,41,38)" index="753517" value="1"/>
  <variable name="X(42,112,2327)" index="758704" value="1"/>
  <variable name="X(43,34,53)" index="759328" value="1"/>
  <variable name="X(43,39,509)" index="762682" value="1"/>
  <variable name="X(43,113,1706)" index="766777" value="1"/>
  <variable name="X(44,47,1852)" index="769821" value="1"/>
  <variable name="X(45,32,2448)" index="773315" value="1"/>
  <variable name="X(45,33,1936)" index="775701" value="1"/>
  <variable name="X(45,46,1307)" index="777970" value="1"/>
  <variable name="X(45,60,2621)" index="782182" value="1"/>
  <variable name="X(45,115,570)" index="783029" value="1"/>
  <variable name="X(46,31,53)" index="785410" value="1"/>
  <variable name="X(46,34,1307)" index="789562" value="1"/>
  <variable name="X(46,45,1936)" index="793089" value="1"/>
  <variable name="X(46,50,2420)" index="796471" value="1"/>
  <variable name="X(46,116,1272)" index="798221" value="1"/>
  <variable name="X(47,10,1912)" index="801759" value="1"/>
  <variable name="X(47,30,1852)" index="804597" value="1"/>
  <variable name="X(47,117,252)" index="805895" value="1.0000000007500001"/>
  <variable name="X(47,117,978)" index="806621" value="-7.5000006205527815e-10"/>
  <variable name="X(48,19,2708)" index="811249" value="1"/>
  <variable name="X(48,21,1870)" index="813309" value="1"/>
  <variable name="X(48,49,745)" index="815082" value="1"/>
  <variable name="X(48,118,878)" index="818113" value="1"/>
  <variable name="X(49,9,745)" index="820878" value="1"/>
  <variable name="X(49,48,2708)" index="825739" value="1"/>
  <variable name="X(49,58,2067)" index="827996" value="1"/>
  <variable name="X(49,119,2188)" index="831015" value="1"/>
  <variable name="X(50,32,1646)" index="833371" value="1"/>
  <variable name="X(50,34,599)" index="835222" value="1"/>
  <variable name="X(50,46,1272)" index="838793" value="1"/>
  <variable name="X(50,120,2420)" index="842839" value="1"/>
  <variable name="X(51,9,2188)" index="845505" value="1"/>
  <variable name="X(51,55,701)" index="846916" value="1"/>
  <variable name="X(51,58,930)" index="850043" value="1"/>
  <variable name="X(51,121,745)" index="852756" value="1"/>
  <variable name="X(53,36,2211)" index="857120" value="1"/>
  <variable name="X(54,12,2211)" index="860018" value="1"/>
  <variable name="X(54,26,1261)" index="861966" value="1"/>
  <variable name="X(54,36,2323)" index="865926" value="1"/>
  <variable name="X(55,9,865)" index="867366" value="1"/>
  <variable name="X(55,23,341)" index="869740" value="1"/>
  <variable name="X(55,51,930)" index="873227" value="1"/>
  <variable name="X(55,125,701)" index="875896" value="1"/>
  <variable name="X(56,17,2339)" index="880432" value="1"/>
  <variable name="X(56,40,1886)" index="882877" value="1"/>
  <variable name="X(56,57,701)" index="884590" value="1"/>
  <variable name="X(56,126,2893)" index="889680" value="1"/>
  <variable name="X(57,56,2339)" index="892024" value="1"/>
  <variable name="X(57,58,701)" index="893284" value="1"/>
  <variable name="X(57,127,930)" index="896411" value="1"/>
  <variable name="X(58,6,2067)" index="900446" value="1"/>
  <variable name="X(58,49,489)" index="901766" value="-1.000000082740371e-09"/>
  <variable name="X(58,49,2708)" index="903985" value="1.0000000010000001"/>
  <variable name="X(58,51,701)" index="904876" value="1"/>
  <variable name="X(58,57,930)" index="908003" value="1"/>
  <variable name="X(58,128,1460)" index="911431" value="1"/>
  <variable name="X(59,18,2621)" index="915490" value="1"/>
  <variable name="X(59,60,2519)" index="918286" value="1"/>
  <variable name="X(59,129,2339)" index="921004" value="1"/>
  <variable name="X(60,31,1305)" index="922868" value="1"/>
  <variable name="X(60,33,2519)" index="926980" value="1"/>
  <variable name="X(60,45,2448)" index="929807" value="1"/>
  <variable name="X(60,59,2621)" index="932878" value="1"/>
  <variable name="X(60,130,53)" index="933208" value="1"/>
  <variable name="X(61,69,2879)" index="938932" value="1"/>
  <variable name="X(61,70,2151)" index="941102" value="1"/>
  <variable name="X(61,131,806)" index="942655" value="1"/>
  <variable name="X(62,3,2876)" index="947623" value="1"/>
  <variable name="X(62,70,806)" index="948451" value="1"/>
  <variable name="X(62,132,1092)" index="951635" value="1"/>
  <variable name="X(63,64,2646)" index="956087" value="1"/>
  <variable name="X(63,133,2688)" index="959027" value="1"/>
  <variable name="X(64,63,2688)" index="961925" value="1"/>
  <variable name="X(64,65,58)" index="962193" value="1"/>
  <variable name="X(64,66,2646)" index="967679" value="1"/>
  <variable name="X(64,134,500)" index="968431" value="1"/>
  <variable name="X(65,64,2688)" index="973517" value="1"/>
  <variable name="X(65,135,58)" index="973785" value="1"/>
  <variable name="X(66,29,2620)" index="979245" value="1"/>
  <variable name="X(66,64,500)" index="980023" value="1"/>
  <variable name="X(66,136,2646)" index="985067" value="1"/>
  <variable name="X(67,13,2620)" index="987939" value="1"/>
  <variable name="X(67,29,627)" index="988844" value="1"/>
  <variable name="X(67,137,1823)" index="992938" value="1"/>
  <variable name="X(68,29,500)" index="994513" value="1"/>
  <variable name="X(68,30,2879)" index="999790" value="1"/>
  <variable name="X(68,69,627)" index="1000436" value="1"/>
  <variable name="X(68,138,1852)" index="1004559" value="1"/>
  <variable name="X(69,61,2151)" index="1007756" value="1"/>
  <variable name="X(69,68,2879)" index="1011382" value="1"/>
  <variable name="X(69,139,627)" index="1012028" value="1"/>
  <variable name="X(70,61,806)" index="1015105" value="1"/>
  <variable name="X(70,62,2876)" index="1020073" value="1"/>
  <variable name="X(70,140,2151)" index="1022246" value="1"/>
  <variable name="C(38,42)" index="1023223" value="1"/>
  <variable name="C(38,41)" index="1023224" value="2"/>
  <variable name="C(53,34)" index="1023314" value="1"/>
  <variable name="C(53,46)" index="1023315" value="2"/>
  <variable name="C(53,31)" index="1023316" value="3"/>
  <variable name="C(53,60)" index="1023317" value="4"/>
  <variable name="C(58,65)" index="1023361" value="1"/>
  <variable name="C(64,4)" index="1023402" value="1"/>
  <variable name="C(64,35)" index="1023403" value="2"/>
  <variable name="C(64,2)" index="1023404" value="3"/>
  <variable name="C(252,1)" index="1024691" value="1.0000000010000001"/>
  <variable name="C(252,28)" index="1024692" value="2.0000000030000002"/>
  <variable name="C(252,10)" index="1024693" value="3.0000000030000002"/>
  <variable name="C(252,47)" index="1024694" value="4.0000000030000002"/>
  <variable name="C(341,9)" index="1025314" value="1"/>
  <variable name="C(341,55)" index="1025315" value="2"/>
  <variable name="C(341,23)" index="1025316" value="3"/>
  <variable name="C(341,24)" index="1025317" value="4"/>
  <variable name="C(430,6)" index="1026039" value="1"/>
  <variable name="C(500,29)" index="1026546" value="1"/>
  <variable name="C(500,66)" index="1026547" value="2"/>
  <variable name="C(500,64)" index="1026548" value="3"/>
  <variable name="C(509,39)" index="1026648" value="1"/>
  <variable name="C(509,7)" index="1026649" value="2.0000000020000002"/>
  <variable name="C(570,14)" index="1027179" value="1"/>
  <variable name="C(570,32)" index="1027180" value="2"/>
  <variable name="C(570,45)" index="1027181" value="3"/>
  <variable name="C(599,27)" index="1027441" value="1"/>
  <variable name="C(599,32)" index="1027442" value="2"/>
  <variable name="C(599,50)" index="1027443" value="2.9999999999999996"/>
  <variable name="C(599,34)" index="1027444" value="3.9999999999999996"/>
  <variable name="C(627,29)" index="1027667" value="1"/>
  <variable name="C(627,68)" index="1027668" value="2"/>
  <variable name="C(627,69)" index="1027669" value="3"/>
  <variable name="C(657,2)" index="1027894" value="1.0000000010000001"/>
  <variable name="C(657,38)" index="1027895" value="2.0000000020000002"/>
  <variable name="C(701,57)" index="1028219" value="1"/>
  <variable name="C(701,58)" index="1028220" value="2"/>
  <variable name="C(701,51)" index="1028221" value="3"/>
  <variable name="C(701,55)" index="1028222" value="4"/>
  <variable name="C(745,48)" index="1028605" value="1"/>
  <variable name="C(745,49)" index="1028606" value="2"/>
  <variable name="C(745,9)" index="1028607" value="3"/>
  <variable name="C(745,51)" index="1028608" value="4"/>
  <variable name="C(777,20)" index="1028933" value="1.0000000000000009"/>
  <variable name="C(777,21)" index="1028934" value="2.0000000000000009"/>
  <variable name="C(777,22)" index="1028935" value="3.0000000000000009"/>
  <variable name="C(777,23)" index="1028936" value="4"/>
  <variable name="C(806,70)" index="1029220" value="1"/>
  <variable name="C(806,61)" index="1029221" value="2"/>
  <variable name="C(865,55)" index="1029846" value="1"/>
  <variable name="C(865,9)" index="1029847" value="2"/>
  <variable name="C(869,21)" index="1029879" value="1"/>
  <variable name="C(869,20)" index="1029880" value="2"/>
  <variable name="C(869,19)" index="1029881" value="3"/>
  <variable name="C(878,48)" index="1029946" value="1"/>
  <variable name="C(930,51)" index="1030402" value="1"/>
  <variable name="C(930,58)" index="1030403" value="2"/>
  <variable name="C(930,57)" index="1030404" value="3"/>
  <variable name="C(978,1)" index="1030885" value="-1.250000103425464e-10"/>
  <variable name="C(978,28)" index="1030886" value="-2.500000206850928e-10"/>
  <variable name="C(1092,4)" index="1031809" value="1"/>
  <variable name="C(1092,3)" index="1031810" value="2"/>
  <variable name="C(1092,62)" index="1031811" value="3"/>
  <variable name="C(1094,10)" index="1031822" value="-2.500000206850928e-10"/>
  <variable name="C(1094,47)" index="1031823" value="-2.500000206850928e-10"/>
  <variable name="C(1094,30)" index="1031824" value="-2.500000206850928e-10"/>
  <variable name="C(1193,7)" index="1032603" value="-1.9999601662774158e-10"/>
  <variable name="C(1216,39)" index="1032796" value="8.0000406611262941e-10"/>
  <variable name="C(1216,7)" index="1032797" value="1.000000082740371e-09"/>
  <variable name="C(1261,6)" index="1033154" value="1"/>
  <variable name="C(1261,12)" index="1033155" value="2"/>
  <variable name="C(1261,54)" index="1033156" value="3"/>
  <variable name="C(1261,26)" index="1033157" value="4"/>
  <variable name="C(1272,46)" index="1033217" value="1"/>
  <variable name="C(1305,60)" index="1033468" value="1"/>
  <variable name="C(1305,31)" index="1033469" value="2"/>
  <variable name="C(1307,45)" index="1033480" value="1"/>
  <variable name="C(1307,46)" index="1033481" value="2"/>
  <variable name="C(1307,34)" index="1033482" value="3"/>
  <variable name="C(1392,4)" index="1034095" value="1"/>
  <variable name="C(1392,28)" index="1034096" value="2"/>
  <variable name="C(1433,25)" index="1034406" value="1"/>
  <variable name="C(1433,23)" index="1034407" value="2"/>
  <variable name="C(1433,22)" index="1034408" value="3"/>
  <variable name="C(1460,6)" index="1034649" value="1"/>
  <variable name="C(1460,58)" index="1034650" value="2"/>
  <variable name="C(1497,38)" index="1035001" value="1"/>
  <variable name="C(1497,2)" index="1035002" value="1.9999999999999998"/>
  <variable name="C(1497,7)" index="1035003" value="3"/>
  <variable name="C(1497,39)" index="1035004" value="4"/>
  <variable name="C(1646,50)" index="1036105" value="1"/>
  <variable name="C(1646,32)" index="1036106" value="2"/>
  <variable name="C(1646,27)" index="1036107" value="3"/>
  <variable name="C(1706,39)" index="1036565" value="1"/>
  <variable name="C(1706,43)" index="1036566" value="2"/>
  <variable name="C(1823,67)" index="1037438" value="1"/>
  <variable name="C(1852,47)" index="1037679" value="1"/>
  <variable name="C(1852,30)" index="1037680" value="2"/>
  <variable name="C(1852,68)" index="1037681" value="3"/>
  <variable name="C(1870,21)" index="1037819" value="1"/>
  <variable name="C(1886,56)" index="1037931" value="1"/>
  <variable name="C(1886,40)" index="1037932" value="2"/>
  <variable name="C(1912,30)" index="1038100" value="1"/>
  <variable name="C(1912,47)" index="1038101" value="2"/>
  <variable name="C(1912,10)" index="1038102" value="3"/>
  <variable name="C(1912,3)" index="1038103" value="4"/>
  <variable name="C(1936,45)" index="1038292" value="1"/>
  <variable name="C(1968,5)" index="1038517" value="1"/>
  <variable name="C(1971,28)" index="1038534" value="1"/>
  <variable name="C(1971,1)" index="1038535" value="2"/>
  <variable name="C(1971,2)" index="1038536" value="3"/>
  <variable name="C(1971,8)" index="1038537" value="4"/>
  <variable name="C(2027,2)" index="1038945" value="7.5000006205527825e-10"/>
  <variable name="C(2027,1)" index="1038946" value="-1.2500001034254637e-10"/>
  <variable name="C(2027,28)" index="1038947" value="-1.6666529161401948e-10"/>
  <variable name="C(2027,10)" index="1038948" value="-2.2222038881869263e-10"/>
  <variable name="C(2041,5)" index="1039052" value="1"/>
  <variable name="C(2041,8)" index="1039053" value="2"/>
  <variable name="C(2041,2)" index="1039054" value="3"/>
  <variable name="C(2041,35)" index="1039055" value="4"/>
  <variable name="C(2067,58)" index="1039266" value="1"/>
  <variable name="C(2067,6)" index="1039267" value="2"/>
  <variable name="C(2067,11)" index="1039268" value="3"/>
  <variable name="C(2151,61)" index="1039906" value="1"/>
  <variable name="C(2151,70)" index="1039907" value="2"/>
  <variable name="C(2188,9)" index="1040168" value="1"/>
  <variable name="C(2188,49)" index="1040169" value="2"/>
  <variable name="C(2211,36)" index="1040386" value="1"/>
  <variable name="C(2211,54)" index="1040387" value="2"/>
  <variable name="C(2211,12)" index="1040388" value="3"/>
  <variable name="C(2323,25)" index="1041368" value="1"/>
  <variable name="C(2323,26)" index="1041369" value="2"/>
  <variable name="C(2323,54)" index="1041370" value="3"/>
  <variable name="C(2323,36)" index="1041371" value="4"/>
  <variable name="C(2327,41)" index="1041401" value="1"/>
  <variable name="C(2327,42)" index="1041402" value="2"/>
  <variable name="C(2339,56)" index="1041482" value="1"/>
  <variable name="C(2339,17)" index="1041483" value="2"/>
  <variable name="C(2339,18)" index="1041484" value="3"/>
  <variable name="C(2339,59)" index="1041485" value="4"/>
  <variable name="C(2389,28)" index="1041894" value="1.6666529161401948e-10"/>
  <variable name="C(2389,10)" index="1041895" value="2.2222038881869263e-10"/>
  <variable name="C(2420,46)" index="1042103" value="1"/>
  <variable name="C(2420,50)" index="1042104" value="2"/>
  <variable name="C(2446,16)" index="1042302" value="1"/>
  <variable name="C(2446,13)" index="1042303" value="2"/>
  <variable name="C(2448,45)" index="1042321" value="1"/>
  <variable name="C(2448,32)" index="1042322" value="2"/>
  <variable name="C(2448,14)" index="1042323" value="3"/>
  <variable name="C(2448,15)" index="1042324" value="4"/>
  <variable name="C(2519,60)" index="1042855" value="1"/>
  <variable name="C(2519,33)" index="1042856" value="2"/>
  <variable name="C(2620,29)" index="1043647" value="1"/>
  <variable name="C(2620,67)" index="1043648" value="2"/>
  <variable name="C(2620,13)" index="1043649" value="3"/>
  <variable name="C(2620,16)" index="1043650" value="4"/>
  <variable name="C(2621,60)" index="1043660" value="1"/>
  <variable name="C(2621,59)" index="1043661" value="2"/>
  <variable name="C(2621,18)" index="1043662" value="3"/>
  <variable name="C(2621,17)" index="1043663" value="4"/>
  <variable name="C(2646,64)" index="1043979" value="1"/>
  <variable name="C(2646,66)" index="1043980" value="2"/>
  <variable name="C(2688,64)" index="1044496" value="1"/>
  <variable name="C(2688,63)" index="1044497" value="2"/>
  <variable name="C(2708,49)" index="1044672" value="1.0000000010000001"/>
  <variable name="C(2708,48)" index="1044673" value="2.0000000010000001"/>
  <variable name="C(2708,19)" index="1044674" value="3.0000000010000001"/>
  <variable name="C(2708,20)" index="1044675" value="4.0000000010000001"/>
  <variable name="C(2876,70)" index="1046148" value="1"/>
  <variable name="C(2876,62)" index="1046149" value="2"/>
  <variable name="C(2876,3)" index="1046150" value="3"/>
  <variable name="C(2876,10)" index="1046151" value="4"/>
  <variable name="C(2879,69)" index="1046171" value="1"/>
  <variable name="C(2879,68)" index="1046172" value="2"/>
  <variable name="C(2879,30)" index="1046173" value="3"/>
  <variable name="C(2879,14)" index="1046174" value="4"/>
  <variable name="C(2893,40)" index="1046318" value="1"/>
  <variable name="C(2893,56)" index="1046319" value="2"/>
 </variables>
</CPLEXSolution>
